NAME : XML100_3334_09
DIMENSION : 101
NB_CLUSTERS : 5
CLUSTERING_ALG : KMeans
CLUSTERING_PARAMS : k(4)
CLUSTERS
1 0
2 22 27 36 54 58 59 70 80 81 82
3 1 2 3 9 17 34 51 55 60 61 62 69 71 72 73 88 90
4 4 7 8 12 14 15 16 18 19 20 24 25 26 28 29 30 31 32 33 35 37 39 41 43 45 46 47 48 50 52 53 57 64 65 66 67 68 74 75 76 77 83 84 85 87 89 92 93 95 99
5 5 6 10 11 13 21 23 38 40 42 44 49 56 63 78 79 86 91 94 96 97 98 100
EOF